data;

param num_top:=3;

#nodes and edges of the physical network
param n := 7;

set E := (1,2) (1,7) (2,3) (2,6) (2,7) (3,4) (3,6) (4,5) (4,6) (5,6) (6,7) (1,3) (5,7) ;

#nodes and edges of the virtual networks
set Nl[1] := 6 1 3 5 ;
set Nl[2] := 3 7 6 4 ;
set Nl[3] := 6 5 3 1 ;

set El[1] := (1,6) (1,3) (3,5) (5,6) (3,6) (1,5) ;
set El[2] := (3,7) (6,7) (4,6) (3,4) (3,6) (4,7) ;
set El[3] := (5,6) (3,5) (1,3) (1,6) (3,6) (1,5) ;
